20
21	456	363	54	73
25	75	485	46	3
32	259	444	60	78
9	262	337	94	85
50	420	452	72	29
28	284	457	7	55
2	30	361	81	3
40	367	337	49	83
9	218	450	79	74
13	419	447	4	56
12	197	347	10	58
42	306	318	38	35
49	316	484	20	71
35	266	416	39	0
23	311	450	6	69
27	452	323	75	1
36	146	350	67	7
13	112	317	38	8
6	481	438	53	86
18	327	437	99	61
